mapa = [|
         9,9,9,9,9,9,9|
         9,8,8,1,8,8,9|
         9,8,4,8,2,8,9|
         9,8,8,8,8,8,9|
         9,8,2,8,4,8,9|
         9,8,8,1,8,8,9|
         9,9,9,9,9,9,9|];
dimx = 7;
dimy = 7;
filav = 4;
colav = 4;
